p cnf 10 50
-6 2 10 0
-5 -1 -2 0
-2 -10 3 0
8 -10 -6 0
-8 -7 5 0
-8 2 10 0
3 9 5 0
-3 -9 5 0
-3 -4 1 0
8 5 -10 0
2 -6 3 0
3 5 9 0
-2 -6 3 0
-4 10 -8 0
2 9 8 0
1 3 9 0
10 -7 6 0
3 -1 4 0
-10 4 -2 0
2 -3 4 0
9 6 -4 0
5 6 3 0
5 -10 9 0
3 -10 -9 0
2 3 -1 0
2 3 5 0
9 -7 -6 0
8 5 6 0
1 -10 6 0
6 7 2 0
9 10 -4 0
-4 2 -10 0
-3 -1 9 0
-3 -4 5 0
-9 -4 2 0
-7 -4 5 0
8 5 -9 0
3 -5 -9 0
-10 -2 -8 0
10 -4 1 0
-4 -3 1 0
10 4 -2 0
-1 3 4 0
-10 -3 1 0
1 3 10 0
-4 -8 2 0
3 -5 -9 0
-1 -6 4 0
-2 10 -4 0
1 -9 8 0